28324
100010011011010001011101100100
7 19 24 27 0 11 21 11 27 24 4 17 13 23 17 7 13 10 27 27 27 21 23 24 10 27 27 13 4 21 11 4 4 24 11 4 20 8 24 21 11 8 19 4 13 19 13 21 19 20 24 21 21 21 10 0 11 8 27 11 11 0 7 8 8 11 17 20 17 11 7 19 19 17 10 23 20 23 8 24 20 0 20 11 4 10 19 0 27 7 27 19 7 7 0 20 19 11 17 17 27 21 19 7 4 0 19 24 0 13 19 4 27 11 17 8 17 7 17 8 20 11 17 4 19 21 21 11 19 17 11 24 11 20 23 13 13 13 21 20 11 24 11 11 11 10 21 21 27 7 0 19 23 0 8 27 21 21 8 13 13 17 23 0 0 27 21 4 13 21 23 8 19 10 20 21 0 10 4 10 23 21 21 11 11 8 11 23 0 21 21 21 19 4 7 11 7 21 23 19 